\* Pricing_problem *\
Minimize
OBJ: - 0.125 M_0_1 - 0.25 M_0_2 - 0.125 M_0_3 - 0.25 M_1_0 - 0.125 M_1_2
 - 0.125 M_2_1 - 0.375 M_2_2 - 0.25 M_2_3 - 0.5 M_3_0 - 0.25 M_3_1
 - 0.125 M_3_2 - 0.375 M_3_3 - 0.125 M_4_2 - 0.375 M_5_1 - 0.125 M_5_2
 - 0.25 M_5_3 - 0.125 M_6_1 - 0.25 M_6_3 - 0.25 M_7_1 - 0.125 M_7_2
 - 0.25 M_7_3
Subject To
LESS_CAP_(1,_0): M_1_0 + M_3_0 <= 2
LESS_CAP_(1,_1): M_0_1 + M_2_1 + M_3_1 + M_5_1 + M_6_1 + M_7_1 <= 1
LESS_CAP_(1,_2): M_0_2 + M_1_2 + M_2_2 + M_3_2 + M_4_2 + M_5_2 + M_7_2 <= 3
LESS_CAP_(1,_3): M_0_3 + M_2_3 + M_3_3 + M_5_3 + M_6_3 + M_7_3 <= 2
LESS_ONE_(1,_0): M_0_1 + M_0_2 + M_0_3 <= 1
LESS_ONE_(1,_1): M_1_0 + M_1_2 <= 1
LESS_ONE_(1,_2): M_2_1 + M_2_2 + M_2_3 <= 1
LESS_ONE_(1,_3): M_3_0 + M_3_1 + M_3_2 + M_3_3 <= 1
LESS_ONE_(1,_4): M_4_2 <= 1
LESS_ONE_(1,_5): M_5_1 + M_5_2 + M_5_3 <= 1
LESS_ONE_(1,_6): M_6_1 + M_6_3 <= 1
LESS_ONE_(1,_7): M_7_1 + M_7_2 + M_7_3 <= 1
STAB_0_1: M_0_1 + M_0_2 + M_0_3 + M_6_1 >= 1
STAB_0_2: 3 M_0_2 + 3 M_0_3 + M_1_2 + M_5_2 + M_7_2 >= 3
STAB_0_3: 2 M_0_3 + M_2_3 + M_3_3 + M_5_3 >= 2
STAB_1_0: 2 M_1_0 + 2 M_1_2 >= 2
STAB_1_2: 3 M_1_2 + M_5_2 >= 3
STAB_2_1: M_0_1 + M_2_1 + M_6_1 >= 1
STAB_2_2: M_0_2 + M_1_2 + 3 M_2_1 + 3 M_2_2 + 3 M_2_3 + M_3_2 + M_4_2 + M_5_2
 + M_7_2 >= 3
STAB_2_3: 2 M_2_1 + 2 M_2_3 + M_3_3 >= 2
STAB_3_0: M_1_0 + 2 M_3_0 + 2 M_3_1 + 2 M_3_2 + 2 M_3_3 >= 2
STAB_3_1: M_0_1 + M_2_1 + M_3_1 + M_3_2 + M_5_1 + M_6_1 + M_7_1 >= 1
STAB_3_2: M_0_2 + M_1_2 + M_2_2 + 3 M_3_2 + M_4_2 + M_5_2 + M_7_2 >= 3
STAB_3_3: M_2_3 + 2 M_3_1 + 2 M_3_2 + 2 M_3_3 >= 2
STAB_4_2: M_0_2 + M_1_2 + M_2_2 + M_3_2 + 3 M_4_2 + M_5_2 + M_7_2 >= 3
STAB_5_1: M_0_1 + M_2_1 + M_3_1 + M_5_1 + M_5_2 + M_5_3 + M_6_1 + M_7_1 >= 1
STAB_5_2: M_1_2 + 3 M_5_2 >= 3
STAB_5_3: M_0_3 + M_2_3 + M_3_3 + 2 M_5_2 + 2 M_5_3 >= 2
STAB_6_1: M_0_1 + M_6_1 >= 1
STAB_6_3: M_0_3 + M_2_3 + M_3_3 + M_5_3 + 2 M_6_1 + 2 M_6_3 + M_7_3 >= 2
STAB_7_1: M_0_1 + M_2_1 + M_3_1 + M_5_1 + M_6_1 + M_7_1 + M_7_2 >= 1
STAB_7_2: M_0_2 + M_1_2 + M_5_2 + 3 M_7_2 >= 3
STAB_7_3: M_0_3 + M_2_3 + M_3_3 + M_5_3 + M_6_3 + 2 M_7_1 + 2 M_7_2 + 2 M_7_3
 >= 2
Bounds
 __dummy = 0
Binaries
M_0_1
M_0_2
M_0_3
M_1_0
M_1_2
M_2_1
M_2_2
M_2_3
M_3_0
M_3_1
M_3_2
M_3_3
M_4_2
M_5_1
M_5_2
M_5_3
M_6_1
M_6_3
M_7_1
M_7_2
M_7_3
End
